126
Lattice="12.076146163547701 0.0 0.0 0.0 12.076146163547701 0.0 0.0 0.0 12.076146163547701" Properties=species:S:1:pos:R:3:forces:R:3 energy=-120629.03772343404 free_energy=-120629.03772343404 pbc="T T T"
Ta       5.18648499       8.95047001       9.48653980      -0.10680080       0.06543380      -0.21112202
Ta       1.23741975       1.66420283       9.81472356       0.75023890      -0.26531779       4.04331940
O       11.10226173       1.40023760       9.80997884      -0.65108637      -2.28145553      -1.63425230
O        1.53557618      11.40086256       2.58016765      -2.96192627      -0.15248699      -3.27456161
O        1.13843279       1.46345985       6.28086642      -3.04409744       5.98264981       1.49417860
O        9.05161256       4.40171663      11.14485672      -0.99054269      -0.57853138      -0.20113920
O       11.09150309       7.43243926       0.29862740      -2.06001927       1.63266362       0.43538727
Ta       1.40452584       9.59664164       3.54923491       4.00372724      -2.15695064      -3.29725983
Ta       1.22759098       7.70883326       0.31635276      -0.12339470      -0.87571902      -4.91813057
O        1.31988292       3.27846356      10.87721913       0.49213563       0.20063166      -1.02767173
O        1.08765139      12.02871106       8.56263370       0.40998682      -1.93323046       0.90346251
O        1.66704435      10.63406955       5.07039096      -0.21713455      -3.44908295       1.20035294
O        3.35424621       1.47269931       9.61346492       2.67535265       0.93224678       0.37428371
O        2.94331790       7.63626046       6.29979577       0.79571555       0.37236413       2.32236641
Ta       1.40197415       3.55282032       6.58750030       1.27417522       1.18388630       1.01748682
Ta       1.30614389       1.45973436       2.76649172      -5.62227936      -1.24385497       2.96425260
O        4.98202014       5.83713326       7.03292049      -1.54998286      -0.53729114       0.58818613
O        5.70507939       0.34626900       8.04668277      -0.15015885       0.96160647       1.97418737
O        1.32857654      11.91467722      10.87331491      -0.30037761      -1.82557143       1.12527055
O        7.33458746      10.76404511       6.67953019      -3.43561654      -1.14080876       0.41581526
O        7.13605924       5.35721755       9.21124110      -1.99692312       0.92859890      -1.16940971
Ta       1.31562608      11.64846945       6.61957696       3.99885166      -0.14686604       5.39430942
Ta       1.34541431       5.11974013       9.49701827      -1.23519061      -2.84801457      -5.66317584
O        9.33168013       1.29098108       0.25352903       3.08073566      -1.02029138      -0.65641601
O        3.36453991       3.90360579       0.51364680      -1.19851100      -1.00909706       0.15451559
O        5.47552272       5.72564627      11.67830477       0.09427464      -1.27683168      -3.05644979
O       11.39396829      11.06872507       6.68363246      -1.99801224       1.15079389       0.10238210
O       11.38803045       3.77875052       6.42192546      -0.49998598      -0.29723392       1.41540849
Ta       1.31062294       7.50119238       7.36164889       1.77111213       0.31340719       4.43261759
Ta       9.38106190       7.12742721       6.32653478      -0.43909634      -3.00714709      -2.32584846
O        3.45434538       3.03510144       6.71141001      -0.00969049       0.25782097      -1.16938066
O       11.33406336      11.15646431       0.65843376      -0.93605973      -0.02528063      -0.00848335
O        1.08363607       5.99716755       1.56546706      -0.23133989       2.61710740      -1.51646518
O        5.68970646       6.45153014       2.09752998      -0.07908199      -0.57178043       1.68613948
O        5.60382211       3.18936817       8.45374913       0.56273941       0.18723827      -0.62192260
Ta       9.27812363       3.23758339       0.62905491      -1.39335794       2.35422187       1.57128727
Ta       9.39346652       4.47134890       3.56755684       3.12260530      -1.45104603       1.98246786
O        1.26372160       3.42128210       2.29746024      -0.41442943       2.33340673      -1.88692567
O        5.47362435      11.79754343      10.56613639      -0.78875917      -0.93553625       1.65305273
O        3.45391547       9.06256563       3.39119680       1.90882735      -0.67726071       1.26582916
O       11.38479766       9.81900697       3.69565214      -0.60954840      -0.38646252      -0.80670444
O        5.48870383       3.07364608      10.83075978       0.31459144       0.36120786      -0.78252990
Ta       9.23832427      11.33255263       0.52466387       0.91829649      -0.01256421      -2.11184294
Ta       1.26610302      10.29877776       9.57471498       3.31518530       1.22446037      -1.42763228
O        7.34587503       4.76414955       3.43840366       2.87678084       1.60948744       0.04570804
O        9.36154444       5.67028922       7.59641883       1.85535046      -1.55017157      -0.61164102
O        5.61011258       9.25968818       1.66077321       0.81054798      -0.11252613      -1.48602975
O        5.08646914       9.65061356       5.29255824      -0.15129014      -0.40650761      -1.79949839
O        9.48335290       8.78423582       7.67337408       0.38881610       2.21818711       0.75342501
Ta       5.47374753       1.39465721       9.50561890      -0.09747772      -2.10196528       0.48901714
Ta       5.30375645       3.95191521       6.81742650      -7.22731879      -0.43393819      -0.35517270
O        7.67702832       1.37875414       9.81378524       1.39285940      -2.47264199      -1.95116262
O       11.38209261       5.05443716       3.43123647      -3.59527074       1.28893875      -2.75409140
O        9.35337251       5.62462086       5.17546913      -0.28020088       0.16976223       0.84818199
O       11.33494492       5.12598954       9.48377194      -0.23175230       0.61050819       1.51315695
O        1.11500507       3.05490269       8.49704574      -3.71264725       2.59806015      -2.26214526
Ta       1.26786613       4.26747215       0.55726463       1.41262141      -1.70474321      -0.55619363
Ta       5.37039262      11.03180346       0.10597664       0.03289958       5.75014032       0.69218777
O        7.30889666       9.74206139       3.78435023      -2.02759638      -1.39693845       0.00370496
O       11.61530593       1.27080909       3.65773304       4.53413683       1.09172408       0.19551594
O        3.35257124       7.53108447       0.48797171      -3.33455496       1.29760645       2.37736900
O       11.61195480       7.31514003       6.48380605      -0.53100068       1.33314244       0.17659596
O        9.38023831       1.60534249       7.06954503       0.79207641      -1.55546111       0.29700150
Ta       9.35296071       3.63029604       6.76839734      -0.70350550      -2.75912742      -3.75052552
Ta       9.37847519       1.21859183       8.85513246      -1.64526460       2.42846864       1.42107571
O        3.43823701       4.73948765       9.46667091      -2.31171536      -0.52734920      -0.88850332
O        3.42696755      10.75579710       0.66306496      -0.19180352      -1.83427385       1.09467185
O        9.37882782       7.61987554       3.04783936       1.90741607       2.73235195      -0.63155190
O        9.36812835      11.69391682       2.54171479       8.08628194      -1.56652508      -4.09848808
O        7.30319431       3.70244739       6.33345441       6.59642767      -1.66658418       1.48854352
Ta       5.29357988      11.29446809       6.57702182       3.49369879      -1.43888317      -1.25568333
Ta       5.16130019       7.77692099       6.22783281       0.28501681      -0.07332478      -1.70897345
O        1.65502738       4.61607789       5.06989705       0.65849012       3.24945685      -2.08428252
O        9.04955479      10.44807274      11.05356830      -1.06333113       1.70419248       0.47486887
O        9.28223918       7.34315065       9.86993208       0.16511573      -0.16877133       1.64752151
O        1.10061392       9.08681211       1.63510174      -0.60880972      -0.51530435       4.65083740
O        4.89164468       1.02158521       0.56093216      -0.29189760      -0.78724788      -1.06309305
Ta       5.28713605       5.24420776       3.53050239      -4.79442760      -1.12350266      -1.88034004
Ta       5.30094029       9.98872875       3.31357012      -2.51796437       1.05147372       0.56642174
O        9.24943553       3.40242278       8.63059342       1.40647416       3.91023525       0.71657391
O        3.30996781      11.28251029       7.10750398       0.05886464      -1.73450964       1.20045038
O        1.45465392       7.13883071       9.16646154       0.13534724      -1.57767826       0.37495452
O        1.30261645       9.32517471      11.32693964      -1.95301433       1.43837435      -1.83092576
O        5.09307117       3.61530592       4.82984862      -1.37203629       2.08880432      -3.61178802
Ta       1.31130524       5.61587411       3.52290046      -1.09846089      -2.68524549       4.12377308
Ta       1.34239286      11.16200001       0.63287097       1.34926377       0.41003388      -3.84303304
O        5.09171260       9.08249368       7.64179133       0.10601198       0.07737529      -0.25181050
O        5.10213070       3.07329225       2.49070756      -1.85874998       1.33211246       3.48508483
O        9.47865045       8.96043403       5.33323553      -1.32470845      -0.82552697       0.90095157
O       11.34264588       9.71100637       9.66012232      -4.90490867       0.77671355       0.59578605
O        9.34655311      11.69889943       4.97944913       1.86183299       1.55914421       0.17865207
Ta       5.36939272       4.99016791      10.05265745       2.16795444       2.09605534      -2.37339818
Ta       5.16615601       1.74945197       3.90251653       1.17439816      -1.63159713      -1.89125181
O        1.33169340       5.87250550      11.32995505       0.75949899       2.21766621       2.35869636
O        9.34167314      11.31965410       8.43239730      -0.24702414      -0.71484201      -1.32591790
O        5.23952946       0.74488809       5.51423039      -0.09358378       1.65234619      -0.40740595
O        1.13438849       7.51303788       3.87152189       0.78457624      -0.07267403      -0.21879754
O        4.97538309      11.87371373       3.12527885       0.53170311       8.39763867      -3.63782558
Ta       9.39140875      10.51870733       6.55586804       0.82673565      -0.14034084      -0.50768155
Ta       5.46773361       7.45231297       0.61256251       0.77826753      -6.60658996       8.36299280
O        2.94759768       1.60420250       3.81846896       7.83886674       1.92697317       0.30266461
O        5.22211687       6.74176219       4.63314028       1.29499473      -0.52034860      -1.08299750
O        1.53877394       5.35978131       7.55154025       0.81167978       0.55960395       1.05688306
O       11.35222830       3.66785527       0.45053807       0.22816844       0.82780394      -0.11802958
O        1.45022198       1.09318830       0.96247368       0.50132681      -1.10182415       1.31338352
Ta       9.26330861       9.28714572       9.49024717      -0.47183497      -4.70474700       2.57270444
Ta       9.35472504       9.64114707       3.34106992       3.32253583       1.16143158      -2.18468641
O        7.14740598      11.42516339       0.93157324      -5.08918992      -3.11925747       2.60096087
O        9.47535849       2.91740369       4.78662085      -1.28852506      -0.36379104       1.28211196
O        4.93171574       7.07400958       9.61247589      -1.18233156      -2.57328911      -0.42796064
O        7.16592355       9.58462950       9.32575919      -1.04157317       0.81480599      -1.68163619
O        7.17450727       3.47572016       0.77820618       0.35488191      -0.29314895      -0.08285868
Ta       9.23573756       5.29284927       9.59942761       1.64236362       0.59581382       3.31674288
Ta       9.38247240       1.07675870       3.79868341     -10.04769041       1.84418956       3.85356942
O        9.49252353       2.74321495       2.45494889       0.22353351      -0.50699635      -3.27455879
O        7.25775056       7.47556197       6.38110084      -2.59944880       1.17541683       0.96737756
O        3.29618772       5.25392302       3.00831413       0.09482203      -0.35873934       0.01612210
O        3.36826178       9.94411101       9.62122385      -0.75394206       1.58139839      -0.67389925
O        5.51198423       9.13580141      11.37468510       0.87981376      -1.87417582      -0.13981299
Ta       9.37159662       7.24334372       1.25472970       3.27866947      -3.90487218      -0.08185570
Ta       5.17601497       2.89524517       0.64059125       2.86482084       1.19174565       3.67990014
O        1.28372815       9.46334393       7.82950778       1.67778391      -0.37473083      -1.66487697
O        9.33526554       5.25969180       1.66865169      -0.34012198       0.22968950       1.14766152
O        7.66903270       7.41860120       0.30220193       2.17692296       0.55205750      -0.64818745
O        9.24725941       9.42542483       1.48268870       2.53922817      -0.79383556      -3.34768687
O        7.25657555       1.44059729       3.73722790      -2.42005188       0.16958508       0.55322015
